c description: There is a graph of 4 vertices with a 4-clique and a 9-coloring
c generator: CNFgen (0.9.0)
c copyright: (C) 2012-2020 Massimo Lauria <massimo.lauria@uniroma1.it>
c url: https://massimolauria.net/cnfgen
c
p cnf 58 326
-7 -8 0
-7 -9 0
-7 -10 0
-8 -9 0
-8 -10 0
-9 -10 0
7 8 9 10 0
-11 -12 0
-11 -13 0
-11 -14 0
-12 -13 0
-12 -14 0
-13 -14 0
11 12 13 14 0
-15 -16 0
-15 -17 0
-15 -18 0
-16 -17 0
-16 -18 0
-17 -18 0
15 16 17 18 0
-19 -20 0
-19 -21 0
-19 -22 0
-20 -21 0
-20 -22 0
-21 -22 0
19 20 21 22 0
-7 -11 0
-7 -15 0
-7 -19 0
-11 -15 0
-11 -19 0
-15 -19 0
-8 -12 0
-8 -16 0
-8 -20 0
-12 -16 0
-12 -20 0
-16 -20 0
-9 -13 0
-9 -17 0
-9 -21 0
-13 -17 0
-13 -21 0
-17 -21 0
-10 -14 0
-10 -18 0
-10 -22 0
-14 -18 0
-14 -22 0
-18 -22 0
1 -7 -12 0
1 -7 -16 0
1 -7 -20 0
1 -11 -8 0
1 -11 -16 0
1 -11 -20 0
1 -15 -8 0
1 -15 -12 0
1 -15 -20 0
1 -19 -8 0
1 -19 -12 0
1 -19 -16 0
2 -7 -13 0
2 -7 -17 0
2 -7 -21 0
2 -11 -9 0
2 -11 -17 0
2 -11 -21 0
2 -15 -9 0
2 -15 -13 0
2 -15 -21 0
2 -19 -9 0
2 -19 -13 0
2 -19 -17 0
3 -7 -14 0
3 -7 -18 0
3 -7 -22 0
3 -11 -10 0
3 -11 -18 0
3 -11 -22 0
3 -15 -10 0
3 -15 -14 0
3 -15 -22 0
3 -19 -10 0
3 -19 -14 0
3 -19 -18 0
4 -8 -13 0
4 -8 -17 0
4 -8 -21 0
4 -12 -9 0
4 -12 -17 0
4 -12 -21 0
4 -16 -9 0
4 -16 -13 0
4 -16 -21 0
4 -20 -9 0
4 -20 -13 0
4 -20 -17 0
5 -8 -14 0
5 -8 -18 0
5 -8 -22 0
5 -12 -10 0
5 -12 -18 0
5 -12 -22 0
5 -16 -10 0
5 -16 -14 0
5 -16 -22 0
5 -20 -10 0
5 -20 -14 0
5 -20 -18 0
6 -9 -14 0
6 -9 -18 0
6 -9 -22 0
6 -13 -10 0
6 -13 -18 0
6 -13 -22 0
6 -17 -10 0
6 -17 -14 0
6 -17 -22 0
6 -21 -10 0
6 -21 -14 0
6 -21 -18 0
-23 -24 0
-23 -25 0
-23 -26 0
-23 -27 0
-23 -28 0
-23 -29 0
-23 -30 0
-23 -31 0
-24 -25 0
-24 -26 0
-24 -27 0
-24 -28 0
-24 -29 0
-24 -30 0
-24 -31 0
-25 -26 0
-25 -27 0
-25 -28 0
-25 -29 0
-25 -30 0
-25 -31 0
-26 -27 0
-26 -28 0
-26 -29 0
-26 -30 0
-26 -31 0
-27 -28 0
-27 -29 0
-27 -30 0
-27 -31 0
-28 -29 0
-28 -30 0
-28 -31 0
-29 -30 0
-29 -31 0
-30 -31 0
23 24 25 26 27 28 29 30 31 0
-32 -33 0
-32 -34 0
-32 -35 0
-32 -36 0
-32 -37 0
-32 -38 0
-32 -39 0
-32 -40 0
-33 -34 0
-33 -35 0
-33 -36 0
-33 -37 0
-33 -38 0
-33 -39 0
-33 -40 0
-34 -35 0
-34 -36 0
-34 -37 0
-34 -38 0
-34 -39 0
-34 -40 0
-35 -36 0
-35 -37 0
-35 -38 0
-35 -39 0
-35 -40 0
-36 -37 0
-36 -38 0
-36 -39 0
-36 -40 0
-37 -38 0
-37 -39 0
-37 -40 0
-38 -39 0
-38 -40 0
-39 -40 0
32 33 34 35 36 37 38 39 40 0
-41 -42 0
-41 -43 0
-41 -44 0
-41 -45 0
-41 -46 0
-41 -47 0
-41 -48 0
-41 -49 0
-42 -43 0
-42 -44 0
-42 -45 0
-42 -46 0
-42 -47 0
-42 -48 0
-42 -49 0
-43 -44 0
-43 -45 0
-43 -46 0
-43 -47 0
-43 -48 0
-43 -49 0
-44 -45 0
-44 -46 0
-44 -47 0
-44 -48 0
-44 -49 0
-45 -46 0
-45 -47 0
-45 -48 0
-45 -49 0
-46 -47 0
-46 -48 0
-46 -49 0
-47 -48 0
-47 -49 0
-48 -49 0
41 42 43 44 45 46 47 48 49 0
-50 -51 0
-50 -52 0
-50 -53 0
-50 -54 0
-50 -55 0
-50 -56 0
-50 -57 0
-50 -58 0
-51 -52 0
-51 -53 0
-51 -54 0
-51 -55 0
-51 -56 0
-51 -57 0
-51 -58 0
-52 -53 0
-52 -54 0
-52 -55 0
-52 -56 0
-52 -57 0
-52 -58 0
-53 -54 0
-53 -55 0
-53 -56 0
-53 -57 0
-53 -58 0
-54 -55 0
-54 -56 0
-54 -57 0
-54 -58 0
-55 -56 0
-55 -57 0
-55 -58 0
-56 -57 0
-56 -58 0
-57 -58 0
50 51 52 53 54 55 56 57 58 0
-1 -23 -32 0
-1 -24 -33 0
-1 -25 -34 0
-1 -26 -35 0
-1 -27 -36 0
-1 -28 -37 0
-1 -29 -38 0
-1 -30 -39 0
-1 -31 -40 0
-2 -23 -41 0
-2 -24 -42 0
-2 -25 -43 0
-2 -26 -44 0
-2 -27 -45 0
-2 -28 -46 0
-2 -29 -47 0
-2 -30 -48 0
-2 -31 -49 0
-3 -23 -50 0
-3 -24 -51 0
-3 -25 -52 0
-3 -26 -53 0
-3 -27 -54 0
-3 -28 -55 0
-3 -29 -56 0
-3 -30 -57 0
-3 -31 -58 0
-4 -32 -41 0
-4 -33 -42 0
-4 -34 -43 0
-4 -35 -44 0
-4 -36 -45 0
-4 -37 -46 0
-4 -38 -47 0
-4 -39 -48 0
-4 -40 -49 0
-5 -32 -50 0
-5 -33 -51 0
-5 -34 -52 0
-5 -35 -53 0
-5 -36 -54 0
-5 -37 -55 0
-5 -38 -56 0
-5 -39 -57 0
-5 -40 -58 0
-6 -41 -50 0
-6 -42 -51 0
-6 -43 -52 0
-6 -44 -53 0
-6 -45 -54 0
-6 -46 -55 0
-6 -47 -56 0
-6 -48 -57 0
-6 -49 -58 0